
Welcome to IBM(R) ILOG(R) CPLEX(R) Interactive Optimizer 22.1.1.0
  with Simplex, Mixed Integer & Barrier Optimizers
5725-A06 5725-A29 5724-Y48 5724-Y49 5724-Y54 5724-Y55 5655-Y21
Copyright IBM Corp. 1988, 2022.  All Rights Reserved.

Type 'help' for a list of available commands.
Type 'help' followed by a command name for more
information on commands.

CPLEX> Selected objective sense:  MINIMIZE
Selected objective  name:  00000000
Selected RHS        name:  RHS1
Selected bound      name:  BOUND
Problem 'ee.mps' read.
Read time = 0.02 sec. (3.14 ticks)
CPLEX> New value for time limit in seconds: 7200
CPLEX> New value for parallel optimization mode: -1
CPLEX> New value for default parallel thread count: 40
CPLEX> New value for mixed integer optimality gap tolerance: 1e-13
CPLEX> Version identifier: 22.1.1.0 | 2022-11-28 | 9160aff4d
CPXPARAM_Threads                                 40
CPXPARAM_Parallel                                -1
CPXPARAM_TimeLimit                               7200
CPXPARAM_MIP_Tolerances_MIPGap                   1e-13
Found incumbent of value 0.000000 after 0.00 sec. (0.31 ticks)
Tried aggregator 2 times.
MIP Presolve eliminated 180 rows and 2745 columns.
MIP Presolve modified 5862 coefficients.
Aggregator did 713 substitutions.
Reduced MIP has 3623 rows, 7739 columns, and 28643 nonzeros.
Reduced MIP has 7739 binaries, 0 generals, 0 SOSs, and 0 indicators.
Presolve time = 0.07 sec. (68.57 ticks)
Probing time = 0.03 sec. (5.29 ticks)
Tried aggregator 1 time.
Detecting symmetries...
Reduced MIP has 3623 rows, 7739 columns, and 28643 nonzeros.
Reduced MIP has 7739 binaries, 0 generals, 0 SOSs, and 0 indicators.
Presolve time = 0.02 sec. (21.83 ticks)
Probing time = 0.02 sec. (5.09 ticks)
Clique table members: 18551.
MIP emphasis: balance optimality and feasibility.
MIP search method: dynamic search.
Parallel mode: opportunistic, using up to 40 threads.
Root relaxation solution time = 0.09 sec. (70.28 ticks)

        Nodes                                         Cuts/
   Node  Left     Objective  IInf  Best Integer    Best Bound    ItCnt     Gap

*     0+    0                            0.0000  -1.31000e+13              --- 
*     0+    0                      -6.49000e+12  -1.31000e+13           101.85%
      0     0  -1.30900e+13    21  -6.49000e+12  -1.30900e+13     2032  101.69%
*     0+    0                      -1.30900e+13  -1.30900e+13             0.00%
      0     0  -1.30900e+13   120  -1.30900e+13      Cuts: 37     2395    0.00%
*     0+    0                      -1.30900e+13  -1.30900e+13             0.00%
      0     0  -1.30900e+13   143  -1.30900e+13      Cuts: 44     2670    0.00%
*     0+    0                      -1.30900e+13  -1.30900e+13             0.00%

Repeating presolve.
Tried aggregator 3 times.
MIP Presolve eliminated 1656 rows and 3860 columns.
MIP Presolve modified 110 coefficients.
Aggregator did 351 substitutions.
Reduced MIP has 1616 rows, 3498 columns, and 12256 nonzeros.
Reduced MIP has 3498 binaries, 0 generals, 0 SOSs, and 0 indicators.
Presolve time = 0.07 sec. (72.39 ticks)
Probing time = 0.04 sec. (12.49 ticks)
Tried aggregator 1 time.
Detecting symmetries...
MIP Presolve eliminated 11 rows and 9 columns.
Reduced MIP has 1605 rows, 3489 columns, and 12211 nonzeros.
Reduced MIP has 3489 binaries, 0 generals, 0 SOSs, and 0 indicators.
Presolve time = 0.02 sec. (13.75 ticks)
Represolve time = 0.14 sec. (109.72 ticks)
Probing time = 0.04 sec. (12.24 ticks)
Clique table members: 8284.
MIP emphasis: balance optimality and feasibility.
MIP search method: dynamic search.
Parallel mode: opportunistic, using up to 40 threads.
Root relaxation solution time = 0.05 sec. (26.66 ticks)

        Nodes                                         Cuts/
   Node  Left     Objective  IInf  Best Integer    Best Bound    ItCnt     Gap

*     0+    0                      -1.30900e+13  -1.30900e+13             0.00%
      0     0  -1.30900e+13    96  -1.30900e+13  -1.30900e+13     3568    0.00%
      0     0  -1.30900e+13   167  -1.30900e+13      Cuts: 69     3757    0.00%
      0     0  -1.30900e+13   120  -1.30900e+13      Cuts: 76     3908    0.00%
      0     0  -1.30900e+13   115  -1.30900e+13      Cuts: 46     3966    0.00%
      0     0  -1.30900e+13   166  -1.30900e+13      Cuts: 29     4024    0.00%
*     0+    0                      -1.30900e+13  -1.30900e+13             0.00%
      0     2  -1.30900e+13   131  -1.30900e+13  -1.30900e+13     4024    0.00%
Elapsed time = 1.49 sec. (901.49 ticks, tree = 0.02 MB, solutions = 6)
    875   134        cutoff        -1.30900e+13  -1.30900e+13    67389    0.00%
   2665   211  -1.30900e+13   109  -1.30900e+13  -1.30900e+13   116488    0.00%
   5171   146  -1.30900e+13   122  -1.30900e+13  -1.30900e+13   146252    0.00%
   6653    94        cutoff        -1.30900e+13  -1.30900e+13   264429    0.00%
   7009    30        cutoff        -1.30900e+13  -1.30900e+13   370174    0.00%

GUB cover cuts applied:  1
Clique cuts applied:  18
Cover cuts applied:  439
Flow cuts applied:  4
Mixed integer rounding cuts applied:  9
Zero-half cuts applied:  22
Lift and project cuts applied:  15
Gomory fractional cuts applied:  19

Root node processing (before b&c):
  Real time             =    1.12 sec. (902.08 ticks)
Parallel b&c, 40 threads:
  Real time             =    2.16 sec. (1252.80 ticks)
  Sync time (average)   =    0.61 sec.
  Wait time (average)   =    0.00 sec.
                          ------------
Total (root+branch&cut) =    3.28 sec. (2154.89 ticks)

Solution pool: 23 solutions saved.

MIP - Integer optimal solution:  Objective = -1.3089999991e+13
Solution time =    3.37 sec.  Iterations = 398158  Nodes = 7026
Deterministic time = 2154.92 ticks  (640.03 ticks/sec)

CPLEX> Solution 'p24' written to file 'ee.sol'.
CPLEX> 